SCIP version 5.0.0 [precision: 8 byte] [memory: block] [mode: optimized] [LP solver: NONE] [GitHash: 3bbd232]
Copyright (C) 2002-2017 Konrad-Zuse-Zentrum fuer Informationstechnik Berlin (ZIB)

External codes: 
  Readline EditLine w  GNU library for command line editing (gnu.org/s/readline)
  CppAD 20160000.1     Algorithmic Differentiation of C++ algorithms developed by B. Bell (www.coin-or.org/CppAD)
  ZLIB 1.2.5           General purpose compression library by J. Gailly and M. Adler (zlib.net)
  GMP 6.1.2            GNU Multiple Precision Arithmetic Library developed by T. Granlund (gmplib.org)

user parameter file <scip.set> not found - using default parameters

read problem <../../Split_data/output/biodeg/0/0_sample_biodeg.logreg>
============

File name	:	../../Split_data/output/biodeg/0/0_sample_biodeg.logreg
Problem name 	:	0_sample_biodeg
Number of data	:	844
Number of var	:	41
The given data has linear dependence
1 sets of column vector are linearly dependent:
{ 19}, 

[dim=1] time: 0.027882
[dim=2] time: 0.057047
[dim=3] time: 0.08917
[dim=4] time: 0.125537
[dim=5] time: 0.166343
[dim=6] time: 0.19653
[dim=7] time: 0.225099
[dim=8] time: 0.252138
[dim=9] time: 0.279204
[dim=10] time: 0.304835
[dim=11] time: 0.333584
[dim=12] time: 0.359776
[dim=13] time: 0.385442
[dim=14] time: 0.411406
[dim=15] time: 0.428555
[dim=16] time: 0.445542
[dim=17] time: 0.462574
[dim=18] time: 0.478798
[dim=19] time: 0.495597
[dim=20] time: 0.511555
[dim=21] time: 0.528172
[dim=22] time: 0.544422
[dim=23] time: 0.560415
[dim=24] Time of forward = 0.574806sec.
AIC: 556.462
k: 23

[dim=40] time: 0.142251
[dim=39] time: 0.188393
[dim=38] time: 0.23371
[dim=37] time: 0.274515
[dim=36] time: 0.313554
[dim=35] time: 0.349714
[dim=34] time: 0.397422
[dim=33] time: 0.438277
[dim=32] time: 0.477304
[dim=31] time: 0.514439
[dim=30] time: 0.563247
[dim=29] time: 0.61294
[dim=28] time: 0.642927
[dim=27] time: 0.670476
[dim=26] time: 0.699122
[dim=25] time: 0.724681
[dim=24] time: 0.750571
[dim=23] time: 0.777561
[dim=22] time: 0.800052
[dim=21] Time of backward = 0.821551sec.
AIC: 554.208
k: 22
